p tw 92 552
1 55
1 76
1 80
2 35
2 60
2 89
3 4
3 13
3 69
3 77
4 60
4 84
5 7
5 18
5 30
6 8
6 29
6 82
7 10
7 75
8 19
8 42
9 10
9 36
9 84
10 75
11 12
11 13
11 58
11 81
11 85
12 15
12 25
12 42
13 69
14 15
14 17
14 75
15 25
16 17
16 70
16 85
17 67
17 75
18 19
18 30
18 81
19 42
20 26
20 43
20 80
21 23
21 24
21 42
22 23
22 25
22 83
23 26
24 35
24 88
25 28
25 29
25 34
25 36
25 40
25 41
25 43
25 44
25 46
25 49
25 51
25 54
25 55
25 56
25 57
25 58
25 60
25 63
25 65
25 71
25 73
25 77
25 83
26 28
26 29
26 32
26 41
26 42
26 44
26 45
26 46
26 53
26 57
26 61
26 62
26 64
26 67
26 69
26 71
26 72
26 76
27 32
27 33
27 36
27 41
27 42
27 44
27 50
27 52
27 66
27 73
27 77
27 78
27 79
28 29
28 30
28 35
28 36
28 37
28 42
28 43
28 50
28 57
28 58
28 60
28 64
28 65
28 67
28 69
28 70
28 71
28 75
28 76
29 30
29 31
29 32
29 34
29 37
29 38
29 41
29 43
29 44
29 47
29 48
29 49
29 52
29 55
29 58
29 59
29 62
29 63
29 64
29 67
29 69
29 70
29 82
30 32
30 35
30 37
30 38
30 42
30 44
30 47
30 50
30 55
30 57
30 58
30 60
30 62
30 67
30 74
30 76
30 81
31 32
31 33
31 35
31 37
31 40
31 46
31 48
31 52
31 54
31 62
31 63
31 72
31 76
31 79
32 33
32 34
32 35
32 37
32 40
32 42
32 43
32 47
32 48
32 49
32 52
32 53
32 56
32 63
32 65
32 67
32 68
32 69
32 70
32 71
32 75
32 76
32 77
32 78
33 42
33 50
33 61
33 75
33 76
33 79
34 37
34 44
34 45
34 50
34 56
34 57
34 59
34 61
34 62
34 67
34 68
34 69
34 77
35 41
35 42
35 43
35 46
35 48
35 49
35 50
35 52
35 55
35 56
35 60
35 63
35 64
35 66
35 71
35 73
35 74
35 75
35 76
35 79
35 88
36 44
36 50
36 52
36 63
36 65
36 69
36 70
36 75
36 77
36 79
37 40
37 46
37 52
37 54
37 57
37 58
37 62
37 64
37 69
37 70
37 73
37 74
37 75
37 76
37 77
37 78
38 44
38 50
38 51
38 55
38 72
38 73
38 74
39 40
39 45
39 47
39 50
39 54
39 56
39 58
39 60
39 65
39 66
39 67
39 69
39 70
39 75
40 44
40 46
40 48
40 49
40 51
40 54
40 55
40 56
40 60
40 69
40 75
41 44
41 45
41 50
41 51
41 52
41 56
41 60
41 62
41 63
41 66
41 67
41 68
41 69
41 70
41 75
41 77
42 48
42 60
42 62
42 63
42 71
43 49
43 50
43 55
43 56
43 63
43 77
43 86
43 90
44 45
44 47
44 49
44 54
44 55
44 56
44 57
44 66
44 67
44 68
44 71
44 73
44 75
44 78
45 56
45 57
45 63
45 64
45 67
45 68
45 70
46 48
46 51
46 52
46 60
46 61
46 65
46 75
47 52
47 53
47 60
47 64
47 67
47 70
47 73
47 78
48 49
48 57
48 59
48 67
48 71
48 73
49 51
49 52
49 54
49 55
49 56
49 57
49 61
49 69
49 71
49 75
49 76
50 53
50 54
50 61
50 62
50 64
50 65
50 66
50 75
51 54
51 59
51 60
51 61
51 65
51 66
51 68
51 73
51 75
52 53
52 60
52 61
52 62
52 63
52 68
52 71
52 76
52 77
52 78
52 79
53 60
53 61
53 65
53 68
53 72
53 74
53 77
54 58
54 60
54 62
54 63
54 66
54 67
54 69
54 71
55 63
55 69
55 72
55 74
55 78
56 60
56 61
56 63
56 64
56 65
56 68
56 69
56 70
56 75
56 77
56 87
57 61
57 67
57 68
57 70
57 76
57 77
57 87
58 61
58 64
58 65
58 72
58 73
58 75
58 76
59 62
59 65
59 69
60 65
60 66
60 68
60 69
60 72
60 78
60 84
60 89
61 62
61 66
61 75
61 76
61 78
61 79
62 63
62 66
62 69
62 71
62 76
62 78
63 64
63 70
63 73
63 77
63 78
63 79
64 65
64 67
64 77
64 78
64 79
65 70
65 73
65 79
66 68
66 69
66 72
66 73
66 75
66 78
66 79
67 68
67 69
67 75
67 77
67 92
68 70
68 71
68 73
68 74
68 75
68 77
69 70
69 76
69 77
69 78
70 76
70 77
70 79
70 85
71 79
71 91
72 74
72 75
72 79
73 75
73 76
73 77
73 78
74 75
74 76
75 78
76 77
76 78
76 80
78 79
81 83
82 84
86 87
86 90
88 90
88 92
89 91
90 92
91 92
